
--- Job project.gms Start 05/09/20 21:53:37 30.1.0 re01a340 WEX-WEI x86 64bit/MS Windows
--- GAMS Parameters defined
    Input \\Client\H$\Desktop\optimization project\project.gms
    PageWidth 80
    PageSize 0
    PageContr 3
    Action CE
    ScrDir Z:\Desktop\optimization project\225a\
    SysDir C:\GAMS\win64\30.1\
    WorkDir \\Client\H$\Desktop\optimization project\
    LogOption 3
    DFormat 0
    TFormat 0
    ErrorLog 99
    IDE 1
GAMS 30.1.0   Copyright (C) 1987-2020 GAMS Development. All rights reserved
Licensee: Small MUD - 5 User License                     S200204/0001AO-WIN
          Shanghai New York University, Information Technology ServiDC14811
--- Starting compilation
--- project.gms(72) 3 Mb
--- Starting execution: elapsed 0:00:00.127
--- project.gms(65) 4 Mb
--- Generating MIP model travel_distance
--- project.gms(66) 4 Mb
---   392 rows  210 columns  1,076 non-zeroes
---   100 discrete-columns
--- Executing CPLEX: elapsed 0:00:00.408

IBM ILOG CPLEX   30.1.0 re01a340 Released Jan 10, 2020 WEI x86 64bit/MS Window
--- GAMS/Cplex Link licensed for continuous and discrete problems.
Cplex 12.10.0.0

Reading data...
Starting Cplex...
Space for names approximately 0.01 Mb
Use option 'names no' to turn use of names off
Version identifier: 12.10.0.0 | 2019-11-26 | 843d4de2ae
CPXPARAM_Advance                                 0
CPXPARAM_Threads                                 1
CPXPARAM_Parallel                                1
CPXPARAM_MIP_Display                             4
CPXPARAM_Simplex_Limits_Iterations               2000000000
CPXPARAM_TimeLimit                               1000
CPXPARAM_Tune_TimeLimit                          200
CPXPARAM_MIP_Tolerances_AbsMIPGap                0
CPXPARAM_MIP_Tolerances_MIPGap                   0.10000000000000001
CPXPARAM_WorkDir                                 "Z:\Desktop\optimization project\225a\"
Tried aggregator 2 times.
MIP Presolve eliminated 201 rows and 20 columns.
MIP Presolve modified 144 coefficients.
Aggregator did 18 substitutions.
Reduced MIP has 173 rows, 172 columns, and 775 nonzeros.
Reduced MIP has 73 binaries, 0 generals, 0 SOSs, and 0 indicators.
Presolve time = 0.00 sec. (0.91 ticks)
Found incumbent of value 0.237035 after 0.00 sec. (2.01 ticks)
Probing time = 0.00 sec. (0.40 ticks)
Tried aggregator 1 time.
Detecting symmetries...
Reduced MIP has 173 rows, 172 columns, and 775 nonzeros.
Reduced MIP has 73 binaries, 0 generals, 0 SOSs, and 0 indicators.
Presolve time = 0.09 sec. (0.53 ticks)
Probing time = 0.00 sec. (0.40 ticks)
Clique table members: 54.
MIP emphasis: balance optimality and feasibility.
MIP search method: dynamic search.
Parallel mode: none, using 1 thread.
Tried aggregator 1 time.
No LP presolve or aggregator reductions.
Presolve time = 0.00 sec. (0.09 ticks)
Initializing dual steep norms . . .

Iteration log . . .
Iteration:     1   Dual objective     =             0.017172
Iteration:    62   Dual objective     =             0.116787
Root relaxation solution time = 0.00 sec. (0.77 ticks)

        Nodes                                         Cuts/
   Node  Left     Objective  IInf  Best Integer    Best Bound    ItCnt     Gap

*     0+    0                            0.2370       -1.1872           600.83%
Found incumbent of value 0.237035 after 0.09 sec. (4.46 ticks)
      0     0        0.1485    23        0.2370        0.1485       97   37.37%
*     0+    0                            0.1904        0.1485            22.04%
Found incumbent of value 0.190420 after 0.09 sec. (5.02 ticks)
      0     0        0.1529    23        0.1904      Cuts: 19      130   19.71%
      0     0        0.1556    23        0.1904      Cuts: 62      169   18.29%
      0     0        0.1572    23        0.1904      Cuts: 43      202   17.43%
      0     0        0.1585    23        0.1904      Cuts: 29      238   16.77%
      0     0        0.1585    23        0.1904      Cuts: 39      267   16.74%
Detecting symmetries...
      0     0        0.1588    23        0.1904      Cuts: 34      295   16.62%
      0     0        0.1589    23        0.1904      Cuts: 31      322   16.56%
      0     0        0.1589    23        0.1904      Cuts: 21      340   16.54%
      0     0        0.1591    23        0.1904       Cuts: 9      358   16.44%
      0     0        0.1594    23        0.1904      Cuts: 31      386   16.30%
      0     0        0.1595    23        0.1904      Cuts: 18      404   16.23%
      0     0        0.1597    23        0.1904      Cuts: 38      417   16.15%
      0     0        0.1601    23        0.1904      Cuts: 14      433   15.90%
      0     0        0.1705    23        0.1904      Cuts: 18      512   10.48%
      0     0        0.1727    23        0.1904      Cuts: 74      572    9.30%

Clique cuts applied:  1
Implied bound cuts applied:  15
Flow cuts applied:  8
Mixed integer rounding cuts applied:  32
Gomory fractional cuts applied:  1

Root node processing (before b&c):
  Real time             =    0.16 sec. (39.23 ticks)
Sequential b&c:
  Real time             =    0.00 sec. (0.00 ticks)
                          ------------
Total (root+branch&cut) =    0.16 sec. (39.23 ticks)
MIP status(102): integer optimal, tolerance
Cplex Time: 0.17sec (det. 39.23 ticks)
Fixing integer variables, and solving final LP...
Version identifier: 12.10.0.0 | 2019-11-26 | 843d4de2ae
CPXPARAM_Advance                                 2
CPXPARAM_Threads                                 1
CPXPARAM_Parallel                                1
CPXPARAM_MIP_Display                             4
CPXPARAM_Simplex_Limits_Iterations               2000000000
CPXPARAM_TimeLimit                               1000
CPXPARAM_Tune_TimeLimit                          200
CPXPARAM_MIP_Tolerances_AbsMIPGap                0
CPXPARAM_MIP_Tolerances_MIPGap                   0.10000000000000001
CPXPARAM_WorkDir                                 "Z:\Desktop\optimization project\225a\"
Tried aggregator 1 time.
LP Presolve eliminated 383 rows and 201 columns.
Aggregator did 9 substitutions.
All rows and columns eliminated.
Presolve time = 0.00 sec. (0.17 ticks)
Fixed MIP status(1): optimal
Cplex Time: 0.02sec (det. 0.30 ticks)

Solution satisfies tolerances.

MIP Solution:            0.190420    (572 iterations, 0 nodes)
Final Solve:             0.190420    (0 iterations)

Best possible:           0.172705
Absolute gap:            0.017715
Relative gap:            0.093032

--- Restarting execution
--- project.gms(66) 2 Mb
--- Reading solution for model travel_distance
--- Executing after solve: elapsed 0:00:01.729
--- project.gms(67) 3 Mb
*** Status: Normal completion
--- Job project.gms Stop 05/09/20 21:53:39 elapsed 0:00:01.767
